pixelwidth = 994 ;
maxconfig = 9 ;
rows = 72 ;
cols = 9 ;
width = array3d(ROWS,COLS,CONFIGS, [
  57,-1,-1,-1,-1,-1,-1,-1,-1,
  142,-1,-1,-1,-1,-1,-1,-1,-1,
  242,153,94,-1,-1,-1,-1,-1,-1,
  214,131,88,-1,-1,-1,-1,-1,-1,
  55,-1,-1,-1,-1,-1,-1,-1,-1,
  120,86,-1,-1,-1,-1,-1,-1,-1,
  145,-1,-1,-1,-1,-1,-1,-1,-1,
  132,-1,-1,-1,-1,-1,-1,-1,-1,
  124,-1,-1,-1,-1,-1,-1,-1,-1,
  57,-1,-1,-1,-1,-1,-1,-1,-1,
  142,-1,-1,-1,-1,-1,-1,-1,-1,
  94,-1,-1,-1,-1,-1,-1,-1,-1,
  88,-1,-1,-1,-1,-1,-1,-1,-1,
  55,-1,-1,-1,-1,-1,-1,-1,-1,
  108,86,-1,-1,-1,-1,-1,-1,-1,
  145,-1,-1,-1,-1,-1,-1,-1,-1,
  132,-1,-1,-1,-1,-1,-1,-1,-1,
  637,356,265,210,152,124,-1,-1,-1,
  57,-1,-1,-1,-1,-1,-1,-1,-1,
  308,164,142,-1,-1,-1,-1,-1,-1,
  94,-1,-1,-1,-1,-1,-1,-1,-1,
  88,-1,-1,-1,-1,-1,-1,-1,-1,
  74,55,-1,-1,-1,-1,-1,-1,-1,
  140,86,-1,-1,-1,-1,-1,-1,-1,
  145,-1,-1,-1,-1,-1,-1,-1,-1,
  132,-1,-1,-1,-1,-1,-1,-1,-1,
  124,-1,-1,-1,-1,-1,-1,-1,-1,
  57,-1,-1,-1,-1,-1,-1,-1,-1,
  142,-1,-1,-1,-1,-1,-1,-1,-1,
  94,-1,-1,-1,-1,-1,-1,-1,-1,
  88,-1,-1,-1,-1,-1,-1,-1,-1,
  55,-1,-1,-1,-1,-1,-1,-1,-1,
  140,86,-1,-1,-1,-1,-1,-1,-1,
  145,-1,-1,-1,-1,-1,-1,-1,-1,
  132,-1,-1,-1,-1,-1,-1,-1,-1,
  460,255,174,157,124,-1,-1,-1,-1,
  57,-1,-1,-1,-1,-1,-1,-1,-1,
  151,142,-1,-1,-1,-1,-1,-1,-1,
  94,-1,-1,-1,-1,-1,-1,-1,-1,
  88,-1,-1,-1,-1,-1,-1,-1,-1,
  55,-1,-1,-1,-1,-1,-1,-1,-1,
  140,86,-1,-1,-1,-1,-1,-1,-1,
  145,-1,-1,-1,-1,-1,-1,-1,-1,
  132,-1,-1,-1,-1,-1,-1,-1,-1,
  856,470,313,255,198,174,167,154,124,
  57,-1,-1,-1,-1,-1,-1,-1,-1,
  181,142,-1,-1,-1,-1,-1,-1,-1,
  94,-1,-1,-1,-1,-1,-1,-1,-1,
  88,-1,-1,-1,-1,-1,-1,-1,-1,
  55,-1,-1,-1,-1,-1,-1,-1,-1,
  140,86,-1,-1,-1,-1,-1,-1,-1,
  145,-1,-1,-1,-1,-1,-1,-1,-1,
  132,-1,-1,-1,-1,-1,-1,-1,-1,
  329,169,145,124,-1,-1,-1,-1,-1,
  57,-1,-1,-1,-1,-1,-1,-1,-1,
  142,-1,-1,-1,-1,-1,-1,-1,-1,
  94,-1,-1,-1,-1,-1,-1,-1,-1,
  88,-1,-1,-1,-1,-1,-1,-1,-1,
  55,-1,-1,-1,-1,-1,-1,-1,-1,
  140,86,-1,-1,-1,-1,-1,-1,-1,
  145,-1,-1,-1,-1,-1,-1,-1,-1,
  132,-1,-1,-1,-1,-1,-1,-1,-1,
  124,-1,-1,-1,-1,-1,-1,-1,-1,
  57,-1,-1,-1,-1,-1,-1,-1,-1,
  196,142,-1,-1,-1,-1,-1,-1,-1,
  94,-1,-1,-1,-1,-1,-1,-1,-1,
  88,-1,-1,-1,-1,-1,-1,-1,-1,
  55,-1,-1,-1,-1,-1,-1,-1,-1,
  140,86,-1,-1,-1,-1,-1,-1,-1,
  145,-1,-1,-1,-1,-1,-1,-1,-1,
  132,-1,-1,-1,-1,-1,-1,-1,-1,
  124,-1,-1,-1,-1,-1,-1,-1,-1,
  57,-1,-1,-1,-1,-1,-1,-1,-1,
  298,156,142,-1,-1,-1,-1,-1,-1,
  94,-1,-1,-1,-1,-1,-1,-1,-1,
  88,-1,-1,-1,-1,-1,-1,-1,-1,
  55,-1,-1,-1,-1,-1,-1,-1,-1,
  140,86,-1,-1,-1,-1,-1,-1,-1,
  145,-1,-1,-1,-1,-1,-1,-1,-1,
  132,-1,-1,-1,-1,-1,-1,-1,-1,
  124,-1,-1,-1,-1,-1,-1,-1,-1,
  57,-1,-1,-1,-1,-1,-1,-1,-1,
  242,142,-1,-1,-1,-1,-1,-1,-1,
  94,-1,-1,-1,-1,-1,-1,-1,-1,
  88,-1,-1,-1,-1,-1,-1,-1,-1,
  55,-1,-1,-1,-1,-1,-1,-1,-1,
  140,86,-1,-1,-1,-1,-1,-1,-1,
  145,-1,-1,-1,-1,-1,-1,-1,-1,
  132,-1,-1,-1,-1,-1,-1,-1,-1,
  124,-1,-1,-1,-1,-1,-1,-1,-1,
  57,-1,-1,-1,-1,-1,-1,-1,-1,
  142,-1,-1,-1,-1,-1,-1,-1,-1,
  94,-1,-1,-1,-1,-1,-1,-1,-1,
  88,-1,-1,-1,-1,-1,-1,-1,-1,
  55,-1,-1,-1,-1,-1,-1,-1,-1,
  121,86,-1,-1,-1,-1,-1,-1,-1,
  145,-1,-1,-1,-1,-1,-1,-1,-1,
  132,-1,-1,-1,-1,-1,-1,-1,-1,
  391,223,173,124,-1,-1,-1,-1,-1,
  57,-1,-1,-1,-1,-1,-1,-1,-1,
  142,-1,-1,-1,-1,-1,-1,-1,-1,
  94,-1,-1,-1,-1,-1,-1,-1,-1,
  88,-1,-1,-1,-1,-1,-1,-1,-1,
  55,-1,-1,-1,-1,-1,-1,-1,-1,
  108,86,-1,-1,-1,-1,-1,-1,-1,
  145,-1,-1,-1,-1,-1,-1,-1,-1,
  132,-1,-1,-1,-1,-1,-1,-1,-1,
  272,145,124,-1,-1,-1,-1,-1,-1,
  57,-1,-1,-1,-1,-1,-1,-1,-1,
  150,142,-1,-1,-1,-1,-1,-1,-1,
  94,-1,-1,-1,-1,-1,-1,-1,-1,
  88,-1,-1,-1,-1,-1,-1,-1,-1,
  55,-1,-1,-1,-1,-1,-1,-1,-1,
  140,86,-1,-1,-1,-1,-1,-1,-1,
  145,-1,-1,-1,-1,-1,-1,-1,-1,
  132,-1,-1,-1,-1,-1,-1,-1,-1,
  151,124,-1,-1,-1,-1,-1,-1,-1,
  57,-1,-1,-1,-1,-1,-1,-1,-1,
  143,142,-1,-1,-1,-1,-1,-1,-1,
  94,-1,-1,-1,-1,-1,-1,-1,-1,
  88,-1,-1,-1,-1,-1,-1,-1,-1,
  55,-1,-1,-1,-1,-1,-1,-1,-1,
  108,86,-1,-1,-1,-1,-1,-1,-1,
  145,-1,-1,-1,-1,-1,-1,-1,-1,
  132,-1,-1,-1,-1,-1,-1,-1,-1,
  124,-1,-1,-1,-1,-1,-1,-1,-1,
  57,-1,-1,-1,-1,-1,-1,-1,-1,
  217,142,-1,-1,-1,-1,-1,-1,-1,
  94,-1,-1,-1,-1,-1,-1,-1,-1,
  88,-1,-1,-1,-1,-1,-1,-1,-1,
  55,-1,-1,-1,-1,-1,-1,-1,-1,
  108,86,-1,-1,-1,-1,-1,-1,-1,
  145,-1,-1,-1,-1,-1,-1,-1,-1,
  132,-1,-1,-1,-1,-1,-1,-1,-1,
  124,-1,-1,-1,-1,-1,-1,-1,-1,
  57,-1,-1,-1,-1,-1,-1,-1,-1,
  191,142,-1,-1,-1,-1,-1,-1,-1,
  94,-1,-1,-1,-1,-1,-1,-1,-1,
  88,-1,-1,-1,-1,-1,-1,-1,-1,
  55,-1,-1,-1,-1,-1,-1,-1,-1,
  140,86,-1,-1,-1,-1,-1,-1,-1,
  145,-1,-1,-1,-1,-1,-1,-1,-1,
  132,-1,-1,-1,-1,-1,-1,-1,-1,
  254,145,124,-1,-1,-1,-1,-1,-1,
  57,-1,-1,-1,-1,-1,-1,-1,-1,
  154,142,-1,-1,-1,-1,-1,-1,-1,
  94,-1,-1,-1,-1,-1,-1,-1,-1,
  88,-1,-1,-1,-1,-1,-1,-1,-1,
  55,-1,-1,-1,-1,-1,-1,-1,-1,
  140,86,-1,-1,-1,-1,-1,-1,-1,
  145,-1,-1,-1,-1,-1,-1,-1,-1,
  132,-1,-1,-1,-1,-1,-1,-1,-1,
  136,124,-1,-1,-1,-1,-1,-1,-1,
  57,-1,-1,-1,-1,-1,-1,-1,-1,
  174,142,-1,-1,-1,-1,-1,-1,-1,
  94,-1,-1,-1,-1,-1,-1,-1,-1,
  88,-1,-1,-1,-1,-1,-1,-1,-1,
  55,-1,-1,-1,-1,-1,-1,-1,-1,
  140,86,-1,-1,-1,-1,-1,-1,-1,
  154,145,-1,-1,-1,-1,-1,-1,-1,
  132,-1,-1,-1,-1,-1,-1,-1,-1,
  397,224,170,125,124,-1,-1,-1,-1,
  57,-1,-1,-1,-1,-1,-1,-1,-1,
  155,142,-1,-1,-1,-1,-1,-1,-1,
  94,-1,-1,-1,-1,-1,-1,-1,-1,
  88,-1,-1,-1,-1,-1,-1,-1,-1,
  55,-1,-1,-1,-1,-1,-1,-1,-1,
  140,86,-1,-1,-1,-1,-1,-1,-1,
  145,-1,-1,-1,-1,-1,-1,-1,-1,
  132,-1,-1,-1,-1,-1,-1,-1,-1,
  295,156,135,124,-1,-1,-1,-1,-1,
  57,-1,-1,-1,-1,-1,-1,-1,-1,
  142,-1,-1,-1,-1,-1,-1,-1,-1,
  94,-1,-1,-1,-1,-1,-1,-1,-1,
  88,-1,-1,-1,-1,-1,-1,-1,-1,
  55,-1,-1,-1,-1,-1,-1,-1,-1,
  140,86,-1,-1,-1,-1,-1,-1,-1,
  145,-1,-1,-1,-1,-1,-1,-1,-1,
  132,-1,-1,-1,-1,-1,-1,-1,-1,
  124,-1,-1,-1,-1,-1,-1,-1,-1,
  57,-1,-1,-1,-1,-1,-1,-1,-1,
  142,-1,-1,-1,-1,-1,-1,-1,-1,
  94,-1,-1,-1,-1,-1,-1,-1,-1,
  88,-1,-1,-1,-1,-1,-1,-1,-1,
  55,-1,-1,-1,-1,-1,-1,-1,-1,
  140,86,-1,-1,-1,-1,-1,-1,-1,
  145,-1,-1,-1,-1,-1,-1,-1,-1,
  132,-1,-1,-1,-1,-1,-1,-1,-1,
  124,-1,-1,-1,-1,-1,-1,-1,-1,
  57,-1,-1,-1,-1,-1,-1,-1,-1,
  142,-1,-1,-1,-1,-1,-1,-1,-1,
  94,-1,-1,-1,-1,-1,-1,-1,-1,
  88,-1,-1,-1,-1,-1,-1,-1,-1,
  55,-1,-1,-1,-1,-1,-1,-1,-1,
  121,86,-1,-1,-1,-1,-1,-1,-1,
  145,-1,-1,-1,-1,-1,-1,-1,-1,
  132,-1,-1,-1,-1,-1,-1,-1,-1,
  124,-1,-1,-1,-1,-1,-1,-1,-1,
  57,-1,-1,-1,-1,-1,-1,-1,-1,
  142,-1,-1,-1,-1,-1,-1,-1,-1,
  94,-1,-1,-1,-1,-1,-1,-1,-1,
  88,-1,-1,-1,-1,-1,-1,-1,-1,
  55,-1,-1,-1,-1,-1,-1,-1,-1,
  121,86,-1,-1,-1,-1,-1,-1,-1,
  145,-1,-1,-1,-1,-1,-1,-1,-1,
  132,-1,-1,-1,-1,-1,-1,-1,-1,
  218,145,124,-1,-1,-1,-1,-1,-1,
  57,-1,-1,-1,-1,-1,-1,-1,-1,
  192,142,-1,-1,-1,-1,-1,-1,-1,
  94,-1,-1,-1,-1,-1,-1,-1,-1,
  88,-1,-1,-1,-1,-1,-1,-1,-1,
  55,-1,-1,-1,-1,-1,-1,-1,-1,
  140,86,-1,-1,-1,-1,-1,-1,-1,
  176,145,-1,-1,-1,-1,-1,-1,-1,
  198,132,-1,-1,-1,-1,-1,-1,-1,
  450,255,174,147,124,-1,-1,-1,-1,
  57,-1,-1,-1,-1,-1,-1,-1,-1,
  142,-1,-1,-1,-1,-1,-1,-1,-1,
  94,-1,-1,-1,-1,-1,-1,-1,-1,
  88,-1,-1,-1,-1,-1,-1,-1,-1,
  55,-1,-1,-1,-1,-1,-1,-1,-1,
  121,86,-1,-1,-1,-1,-1,-1,-1,
  154,145,-1,-1,-1,-1,-1,-1,-1,
  199,132,-1,-1,-1,-1,-1,-1,-1,
  124,-1,-1,-1,-1,-1,-1,-1,-1,
  57,-1,-1,-1,-1,-1,-1,-1,-1,
  142,-1,-1,-1,-1,-1,-1,-1,-1,
  94,-1,-1,-1,-1,-1,-1,-1,-1,
  88,-1,-1,-1,-1,-1,-1,-1,-1,
  55,-1,-1,-1,-1,-1,-1,-1,-1,
  140,86,-1,-1,-1,-1,-1,-1,-1,
  151,145,-1,-1,-1,-1,-1,-1,-1,
  132,-1,-1,-1,-1,-1,-1,-1,-1,
  498,255,195,174,124,-1,-1,-1,-1,
  57,-1,-1,-1,-1,-1,-1,-1,-1,
  142,-1,-1,-1,-1,-1,-1,-1,-1,
  94,-1,-1,-1,-1,-1,-1,-1,-1,
  88,-1,-1,-1,-1,-1,-1,-1,-1,
  55,-1,-1,-1,-1,-1,-1,-1,-1,
  121,86,-1,-1,-1,-1,-1,-1,-1,
  154,145,-1,-1,-1,-1,-1,-1,-1,
  132,-1,-1,-1,-1,-1,-1,-1,-1,
  124,-1,-1,-1,-1,-1,-1,-1,-1,
  57,-1,-1,-1,-1,-1,-1,-1,-1,
  148,142,-1,-1,-1,-1,-1,-1,-1,
  94,-1,-1,-1,-1,-1,-1,-1,-1,
  88,-1,-1,-1,-1,-1,-1,-1,-1,
  55,-1,-1,-1,-1,-1,-1,-1,-1,
  140,86,-1,-1,-1,-1,-1,-1,-1,
  145,-1,-1,-1,-1,-1,-1,-1,-1,
  132,-1,-1,-1,-1,-1,-1,-1,-1,
  124,-1,-1,-1,-1,-1,-1,-1,-1,
  57,-1,-1,-1,-1,-1,-1,-1,-1,
  142,-1,-1,-1,-1,-1,-1,-1,-1,
  94,-1,-1,-1,-1,-1,-1,-1,-1,
  88,-1,-1,-1,-1,-1,-1,-1,-1,
  55,-1,-1,-1,-1,-1,-1,-1,-1,
  121,86,-1,-1,-1,-1,-1,-1,-1,
  145,-1,-1,-1,-1,-1,-1,-1,-1,
  132,-1,-1,-1,-1,-1,-1,-1,-1,
  766,404,293,217,176,155,129,127,124,
  57,-1,-1,-1,-1,-1,-1,-1,-1,
  149,142,-1,-1,-1,-1,-1,-1,-1,
  94,-1,-1,-1,-1,-1,-1,-1,-1,
  88,-1,-1,-1,-1,-1,-1,-1,-1,
  55,-1,-1,-1,-1,-1,-1,-1,-1,
  121,86,-1,-1,-1,-1,-1,-1,-1,
  154,145,-1,-1,-1,-1,-1,-1,-1,
  208,132,-1,-1,-1,-1,-1,-1,-1,
  124,-1,-1,-1,-1,-1,-1,-1,-1,
  57,-1,-1,-1,-1,-1,-1,-1,-1,
  152,142,-1,-1,-1,-1,-1,-1,-1,
  94,-1,-1,-1,-1,-1,-1,-1,-1,
  88,-1,-1,-1,-1,-1,-1,-1,-1,
  55,-1,-1,-1,-1,-1,-1,-1,-1,
  140,86,-1,-1,-1,-1,-1,-1,-1,
  145,-1,-1,-1,-1,-1,-1,-1,-1,
  132,-1,-1,-1,-1,-1,-1,-1,-1,
  136,124,-1,-1,-1,-1,-1,-1,-1,
  57,-1,-1,-1,-1,-1,-1,-1,-1,
  142,-1,-1,-1,-1,-1,-1,-1,-1,
  94,-1,-1,-1,-1,-1,-1,-1,-1,
  88,-1,-1,-1,-1,-1,-1,-1,-1,
  55,-1,-1,-1,-1,-1,-1,-1,-1,
  140,86,-1,-1,-1,-1,-1,-1,-1,
  145,-1,-1,-1,-1,-1,-1,-1,-1,
  132,-1,-1,-1,-1,-1,-1,-1,-1,
  136,124,-1,-1,-1,-1,-1,-1,-1,
  57,-1,-1,-1,-1,-1,-1,-1,-1,
  223,142,-1,-1,-1,-1,-1,-1,-1,
  94,-1,-1,-1,-1,-1,-1,-1,-1,
  88,-1,-1,-1,-1,-1,-1,-1,-1,
  55,-1,-1,-1,-1,-1,-1,-1,-1,
  140,86,-1,-1,-1,-1,-1,-1,-1,
  145,-1,-1,-1,-1,-1,-1,-1,-1,
  132,-1,-1,-1,-1,-1,-1,-1,-1,
  124,-1,-1,-1,-1,-1,-1,-1,-1,
  57,-1,-1,-1,-1,-1,-1,-1,-1,
  142,-1,-1,-1,-1,-1,-1,-1,-1,
  94,-1,-1,-1,-1,-1,-1,-1,-1,
  88,-1,-1,-1,-1,-1,-1,-1,-1,
  55,-1,-1,-1,-1,-1,-1,-1,-1,
  140,86,-1,-1,-1,-1,-1,-1,-1,
  145,-1,-1,-1,-1,-1,-1,-1,-1,
  132,-1,-1,-1,-1,-1,-1,-1,-1,
  124,-1,-1,-1,-1,-1,-1,-1,-1,
  57,-1,-1,-1,-1,-1,-1,-1,-1,
  142,-1,-1,-1,-1,-1,-1,-1,-1,
  94,-1,-1,-1,-1,-1,-1,-1,-1,
  88,-1,-1,-1,-1,-1,-1,-1,-1,
  55,-1,-1,-1,-1,-1,-1,-1,-1,
  121,86,-1,-1,-1,-1,-1,-1,-1,
  154,145,-1,-1,-1,-1,-1,-1,-1,
  188,132,-1,-1,-1,-1,-1,-1,-1,
  124,-1,-1,-1,-1,-1,-1,-1,-1,
  57,-1,-1,-1,-1,-1,-1,-1,-1,
  299,174,142,-1,-1,-1,-1,-1,-1,
  94,-1,-1,-1,-1,-1,-1,-1,-1,
  88,-1,-1,-1,-1,-1,-1,-1,-1,
  55,-1,-1,-1,-1,-1,-1,-1,-1,
  121,86,-1,-1,-1,-1,-1,-1,-1,
  154,145,-1,-1,-1,-1,-1,-1,-1,
  147,132,-1,-1,-1,-1,-1,-1,-1,
  124,-1,-1,-1,-1,-1,-1,-1,-1,
  57,-1,-1,-1,-1,-1,-1,-1,-1,
  147,142,-1,-1,-1,-1,-1,-1,-1,
  94,-1,-1,-1,-1,-1,-1,-1,-1,
  88,-1,-1,-1,-1,-1,-1,-1,-1,
  55,-1,-1,-1,-1,-1,-1,-1,-1,
  140,86,-1,-1,-1,-1,-1,-1,-1,
  145,-1,-1,-1,-1,-1,-1,-1,-1,
  132,-1,-1,-1,-1,-1,-1,-1,-1,
  124,-1,-1,-1,-1,-1,-1,-1,-1,
  57,-1,-1,-1,-1,-1,-1,-1,-1,
  159,142,-1,-1,-1,-1,-1,-1,-1,
  94,-1,-1,-1,-1,-1,-1,-1,-1,
  88,-1,-1,-1,-1,-1,-1,-1,-1,
  55,-1,-1,-1,-1,-1,-1,-1,-1,
  121,86,-1,-1,-1,-1,-1,-1,-1,
  145,-1,-1,-1,-1,-1,-1,-1,-1,
  132,-1,-1,-1,-1,-1,-1,-1,-1,
  124,-1,-1,-1,-1,-1,-1,-1,-1,
  57,-1,-1,-1,-1,-1,-1,-1,-1,
  242,161,142,-1,-1,-1,-1,-1,-1,
  94,-1,-1,-1,-1,-1,-1,-1,-1,
  88,-1,-1,-1,-1,-1,-1,-1,-1,
  55,-1,-1,-1,-1,-1,-1,-1,-1,
  140,86,-1,-1,-1,-1,-1,-1,-1,
  145,-1,-1,-1,-1,-1,-1,-1,-1,
  132,-1,-1,-1,-1,-1,-1,-1,-1,
  124,-1,-1,-1,-1,-1,-1,-1,-1,
  57,-1,-1,-1,-1,-1,-1,-1,-1,
  210,142,-1,-1,-1,-1,-1,-1,-1,
  94,-1,-1,-1,-1,-1,-1,-1,-1,
  88,-1,-1,-1,-1,-1,-1,-1,-1,
  55,-1,-1,-1,-1,-1,-1,-1,-1,
  121,86,-1,-1,-1,-1,-1,-1,-1,
  145,-1,-1,-1,-1,-1,-1,-1,-1,
  132,-1,-1,-1,-1,-1,-1,-1,-1,
  124,-1,-1,-1,-1,-1,-1,-1,-1,
  57,-1,-1,-1,-1,-1,-1,-1,-1,
  142,-1,-1,-1,-1,-1,-1,-1,-1,
  94,-1,-1,-1,-1,-1,-1,-1,-1,
  88,-1,-1,-1,-1,-1,-1,-1,-1,
  55,-1,-1,-1,-1,-1,-1,-1,-1,
  140,86,-1,-1,-1,-1,-1,-1,-1,
  145,-1,-1,-1,-1,-1,-1,-1,-1,
  132,-1,-1,-1,-1,-1,-1,-1,-1,
  124,-1,-1,-1,-1,-1,-1,-1,-1,
  57,-1,-1,-1,-1,-1,-1,-1,-1,
  142,-1,-1,-1,-1,-1,-1,-1,-1,
  94,-1,-1,-1,-1,-1,-1,-1,-1,
  88,-1,-1,-1,-1,-1,-1,-1,-1,
  55,-1,-1,-1,-1,-1,-1,-1,-1,
  140,86,-1,-1,-1,-1,-1,-1,-1,
  145,-1,-1,-1,-1,-1,-1,-1,-1,
  132,-1,-1,-1,-1,-1,-1,-1,-1,
  124,-1,-1,-1,-1,-1,-1,-1,-1,
  57,-1,-1,-1,-1,-1,-1,-1,-1,
  286,169,142,-1,-1,-1,-1,-1,-1,
  94,-1,-1,-1,-1,-1,-1,-1,-1,
  88,-1,-1,-1,-1,-1,-1,-1,-1,
  55,-1,-1,-1,-1,-1,-1,-1,-1,
  140,86,-1,-1,-1,-1,-1,-1,-1,
  145,-1,-1,-1,-1,-1,-1,-1,-1,
  132,-1,-1,-1,-1,-1,-1,-1,-1,
  124,-1,-1,-1,-1,-1,-1,-1,-1,
  57,-1,-1,-1,-1,-1,-1,-1,-1,
  149,142,-1,-1,-1,-1,-1,-1,-1,
  94,-1,-1,-1,-1,-1,-1,-1,-1,
  88,-1,-1,-1,-1,-1,-1,-1,-1,
  55,-1,-1,-1,-1,-1,-1,-1,-1,
  121,86,-1,-1,-1,-1,-1,-1,-1,
  145,-1,-1,-1,-1,-1,-1,-1,-1,
  132,-1,-1,-1,-1,-1,-1,-1,-1,
  124,-1,-1,-1,-1,-1,-1,-1,-1,
  57,-1,-1,-1,-1,-1,-1,-1,-1,
  175,142,-1,-1,-1,-1,-1,-1,-1,
  94,-1,-1,-1,-1,-1,-1,-1,-1,
  88,-1,-1,-1,-1,-1,-1,-1,-1,
  55,-1,-1,-1,-1,-1,-1,-1,-1,
  140,86,-1,-1,-1,-1,-1,-1,-1,
  145,-1,-1,-1,-1,-1,-1,-1,-1,
  132,-1,-1,-1,-1,-1,-1,-1,-1,
  136,124,-1,-1,-1,-1,-1,-1,-1,
  57,-1,-1,-1,-1,-1,-1,-1,-1,
  142,-1,-1,-1,-1,-1,-1,-1,-1,
  94,-1,-1,-1,-1,-1,-1,-1,-1,
  88,-1,-1,-1,-1,-1,-1,-1,-1,
  55,-1,-1,-1,-1,-1,-1,-1,-1,
  140,86,-1,-1,-1,-1,-1,-1,-1,
  145,-1,-1,-1,-1,-1,-1,-1,-1,
  169,132,-1,-1,-1,-1,-1,-1,-1,
  124,-1,-1,-1,-1,-1,-1,-1,-1,
  57,-1,-1,-1,-1,-1,-1,-1,-1,
  221,148,142,-1,-1,-1,-1,-1,-1,
  94,-1,-1,-1,-1,-1,-1,-1,-1,
  88,-1,-1,-1,-1,-1,-1,-1,-1,
  55,-1,-1,-1,-1,-1,-1,-1,-1,
  121,86,-1,-1,-1,-1,-1,-1,-1,
  145,-1,-1,-1,-1,-1,-1,-1,-1,
  132,-1,-1,-1,-1,-1,-1,-1,-1,
  124,-1,-1,-1,-1,-1,-1,-1,-1,
  57,-1,-1,-1,-1,-1,-1,-1,-1,
  142,-1,-1,-1,-1,-1,-1,-1,-1,
  94,-1,-1,-1,-1,-1,-1,-1,-1,
  88,-1,-1,-1,-1,-1,-1,-1,-1,
  55,-1,-1,-1,-1,-1,-1,-1,-1,
  108,86,-1,-1,-1,-1,-1,-1,-1,
  154,145,-1,-1,-1,-1,-1,-1,-1,
  132,-1,-1,-1,-1,-1,-1,-1,-1,
  124,-1,-1,-1,-1,-1,-1,-1,-1,
  57,-1,-1,-1,-1,-1,-1,-1,-1,
  227,148,142,-1,-1,-1,-1,-1,-1,
  94,-1,-1,-1,-1,-1,-1,-1,-1,
  88,-1,-1,-1,-1,-1,-1,-1,-1,
  55,-1,-1,-1,-1,-1,-1,-1,-1,
  140,86,-1,-1,-1,-1,-1,-1,-1,
  145,-1,-1,-1,-1,-1,-1,-1,-1,
  132,-1,-1,-1,-1,-1,-1,-1,-1,
  124,-1,-1,-1,-1,-1,-1,-1,-1,
  57,-1,-1,-1,-1,-1,-1,-1,-1,
  226,142,-1,-1,-1,-1,-1,-1,-1,
  94,-1,-1,-1,-1,-1,-1,-1,-1,
  88,-1,-1,-1,-1,-1,-1,-1,-1,
  55,-1,-1,-1,-1,-1,-1,-1,-1,
  140,86,-1,-1,-1,-1,-1,-1,-1,
  145,-1,-1,-1,-1,-1,-1,-1,-1,
  132,-1,-1,-1,-1,-1,-1,-1,-1,
  124,-1,-1,-1,-1,-1,-1,-1,-1,
  57,-1,-1,-1,-1,-1,-1,-1,-1,
  142,-1,-1,-1,-1,-1,-1,-1,-1,
  94,-1,-1,-1,-1,-1,-1,-1,-1,
  88,-1,-1,-1,-1,-1,-1,-1,-1,
  55,-1,-1,-1,-1,-1,-1,-1,-1,
  121,86,-1,-1,-1,-1,-1,-1,-1,
  154,145,-1,-1,-1,-1,-1,-1,-1,
  145,132,-1,-1,-1,-1,-1,-1,-1,
  124,-1,-1,-1,-1,-1,-1,-1,-1,
  57,-1,-1,-1,-1,-1,-1,-1,-1,
  142,-1,-1,-1,-1,-1,-1,-1,-1,
  94,-1,-1,-1,-1,-1,-1,-1,-1,
  88,-1,-1,-1,-1,-1,-1,-1,-1,
  55,-1,-1,-1,-1,-1,-1,-1,-1,
  140,86,-1,-1,-1,-1,-1,-1,-1,
  145,-1,-1,-1,-1,-1,-1,-1,-1,
  132,-1,-1,-1,-1,-1,-1,-1,-1,
  124,-1,-1,-1,-1,-1,-1,-1,-1,
  57,-1,-1,-1,-1,-1,-1,-1,-1,
  165,142,-1,-1,-1,-1,-1,-1,-1,
  94,-1,-1,-1,-1,-1,-1,-1,-1,
  88,-1,-1,-1,-1,-1,-1,-1,-1,
  55,-1,-1,-1,-1,-1,-1,-1,-1,
  140,86,-1,-1,-1,-1,-1,-1,-1,
  145,-1,-1,-1,-1,-1,-1,-1,-1,
  132,-1,-1,-1,-1,-1,-1,-1,-1,
  124,-1,-1,-1,-1,-1,-1,-1,-1,
  57,-1,-1,-1,-1,-1,-1,-1,-1,
  208,142,-1,-1,-1,-1,-1,-1,-1,
  94,-1,-1,-1,-1,-1,-1,-1,-1,
  88,-1,-1,-1,-1,-1,-1,-1,-1,
  55,-1,-1,-1,-1,-1,-1,-1,-1,
  121,86,-1,-1,-1,-1,-1,-1,-1,
  145,-1,-1,-1,-1,-1,-1,-1,-1,
  132,-1,-1,-1,-1,-1,-1,-1,-1,
  124,-1,-1,-1,-1,-1,-1,-1,-1,
  57,-1,-1,-1,-1,-1,-1,-1,-1,
  142,-1,-1,-1,-1,-1,-1,-1,-1,
  94,-1,-1,-1,-1,-1,-1,-1,-1,
  88,-1,-1,-1,-1,-1,-1,-1,-1,
  55,-1,-1,-1,-1,-1,-1,-1,-1,
  140,86,-1,-1,-1,-1,-1,-1,-1,
  145,-1,-1,-1,-1,-1,-1,-1,-1,
  132,-1,-1,-1,-1,-1,-1,-1,-1,
  124,-1,-1,-1,-1,-1,-1,-1,-1,
  57,-1,-1,-1,-1,-1,-1,-1,-1,
  199,142,-1,-1,-1,-1,-1,-1,-1,
  94,-1,-1,-1,-1,-1,-1,-1,-1,
  88,-1,-1,-1,-1,-1,-1,-1,-1,
  55,-1,-1,-1,-1,-1,-1,-1,-1,
  121,86,-1,-1,-1,-1,-1,-1,-1,
  145,-1,-1,-1,-1,-1,-1,-1,-1,
  132,-1,-1,-1,-1,-1,-1,-1,-1,
  124,-1,-1,-1,-1,-1,-1,-1,-1,
  57,-1,-1,-1,-1,-1,-1,-1,-1,
  180,142,-1,-1,-1,-1,-1,-1,-1,
  94,-1,-1,-1,-1,-1,-1,-1,-1,
  88,-1,-1,-1,-1,-1,-1,-1,-1,
  55,-1,-1,-1,-1,-1,-1,-1,-1,
  140,86,-1,-1,-1,-1,-1,-1,-1,
  145,-1,-1,-1,-1,-1,-1,-1,-1,
  132,-1,-1,-1,-1,-1,-1,-1,-1,
  124,-1,-1,-1,-1,-1,-1,-1,-1,
  57,-1,-1,-1,-1,-1,-1,-1,-1,
  255,142,-1,-1,-1,-1,-1,-1,-1,
  94,-1,-1,-1,-1,-1,-1,-1,-1,
  88,-1,-1,-1,-1,-1,-1,-1,-1,
  55,-1,-1,-1,-1,-1,-1,-1,-1,
  140,86,-1,-1,-1,-1,-1,-1,-1,
  145,-1,-1,-1,-1,-1,-1,-1,-1,
  132,-1,-1,-1,-1,-1,-1,-1,-1,
  124,-1,-1,-1,-1,-1,-1,-1,-1,
  57,-1,-1,-1,-1,-1,-1,-1,-1,
  323,174,145,142,-1,-1,-1,-1,-1,
  94,-1,-1,-1,-1,-1,-1,-1,-1,
  88,-1,-1,-1,-1,-1,-1,-1,-1,
  55,-1,-1,-1,-1,-1,-1,-1,-1,
  108,86,-1,-1,-1,-1,-1,-1,-1,
  145,-1,-1,-1,-1,-1,-1,-1,-1,
  132,-1,-1,-1,-1,-1,-1,-1,-1,
  124,-1,-1,-1,-1,-1,-1,-1,-1,
  57,-1,-1,-1,-1,-1,-1,-1,-1,
  142,-1,-1,-1,-1,-1,-1,-1,-1,
  94,-1,-1,-1,-1,-1,-1,-1,-1,
  88,-1,-1,-1,-1,-1,-1,-1,-1,
  55,-1,-1,-1,-1,-1,-1,-1,-1,
  140,86,-1,-1,-1,-1,-1,-1,-1,
  145,-1,-1,-1,-1,-1,-1,-1,-1,
  132,-1,-1,-1,-1,-1,-1,-1,-1,
  124,-1,-1,-1,-1,-1,-1,-1,-1,
  57,-1,-1,-1,-1,-1,-1,-1,-1,
  156,142,-1,-1,-1,-1,-1,-1,-1,
  94,-1,-1,-1,-1,-1,-1,-1,-1,
  88,-1,-1,-1,-1,-1,-1,-1,-1,
  55,-1,-1,-1,-1,-1,-1,-1,-1,
  140,86,-1,-1,-1,-1,-1,-1,-1,
  145,-1,-1,-1,-1,-1,-1,-1,-1,
  132,-1,-1,-1,-1,-1,-1,-1,-1,
  124,-1,-1,-1,-1,-1,-1,-1,-1,
  57,-1,-1,-1,-1,-1,-1,-1,-1,
  142,-1,-1,-1,-1,-1,-1,-1,-1,
  94,-1,-1,-1,-1,-1,-1,-1,-1,
  88,-1,-1,-1,-1,-1,-1,-1,-1,
  55,-1,-1,-1,-1,-1,-1,-1,-1,
  140,86,-1,-1,-1,-1,-1,-1,-1,
  145,-1,-1,-1,-1,-1,-1,-1,-1,
  132,-1,-1,-1,-1,-1,-1,-1,-1,
  124,-1,-1,-1,-1,-1,-1,-1,-1,
  57,-1,-1,-1,-1,-1,-1,-1,-1,
  201,142,-1,-1,-1,-1,-1,-1,-1,
  94,-1,-1,-1,-1,-1,-1,-1,-1,
  88,-1,-1,-1,-1,-1,-1,-1,-1,
  55,-1,-1,-1,-1,-1,-1,-1,-1,
  140,86,-1,-1,-1,-1,-1,-1,-1,
  145,-1,-1,-1,-1,-1,-1,-1,-1,
  132,-1,-1,-1,-1,-1,-1,-1,-1,
  124,-1,-1,-1,-1,-1,-1,-1,-1,
  57,-1,-1,-1,-1,-1,-1,-1,-1,
  300,158,142,-1,-1,-1,-1,-1,-1,
  94,-1,-1,-1,-1,-1,-1,-1,-1,
  88,-1,-1,-1,-1,-1,-1,-1,-1,
  55,-1,-1,-1,-1,-1,-1,-1,-1,
  140,86,-1,-1,-1,-1,-1,-1,-1,
  145,-1,-1,-1,-1,-1,-1,-1,-1,
  132,-1,-1,-1,-1,-1,-1,-1,-1,
  124,-1,-1,-1,-1,-1,-1,-1,-1,
  57,-1,-1,-1,-1,-1,-1,-1,-1,
  185,142,-1,-1,-1,-1,-1,-1,-1,
  94,-1,-1,-1,-1,-1,-1,-1,-1,
  88,-1,-1,-1,-1,-1,-1,-1,-1,
  55,-1,-1,-1,-1,-1,-1,-1,-1,
  121,86,-1,-1,-1,-1,-1,-1,-1,
  145,-1,-1,-1,-1,-1,-1,-1,-1,
  132,-1,-1,-1,-1,-1,-1,-1,-1,
  124,-1,-1,-1,-1,-1,-1,-1,-1,
  57,-1,-1,-1,-1,-1,-1,-1,-1,
  216,142,-1,-1,-1,-1,-1,-1,-1,
  94,-1,-1,-1,-1,-1,-1,-1,-1,
  88,-1,-1,-1,-1,-1,-1,-1,-1,
  55,-1,-1,-1,-1,-1,-1,-1,-1,
  140,86,-1,-1,-1,-1,-1,-1,-1,
  145,-1,-1,-1,-1,-1,-1,-1,-1,
  151,132,-1,-1,-1,-1,-1,-1,-1,
  124,-1,-1,-1,-1,-1,-1,-1,-1,
  57,-1,-1,-1,-1,-1,-1,-1,-1,
  153,142,-1,-1,-1,-1,-1,-1,-1,
  94,-1,-1,-1,-1,-1,-1,-1,-1,
  88,-1,-1,-1,-1,-1,-1,-1,-1,
  55,-1,-1,-1,-1,-1,-1,-1,-1,
  121,86,-1,-1,-1,-1,-1,-1,-1,
  145,-1,-1,-1,-1,-1,-1,-1,-1,
  132,-1,-1,-1,-1,-1,-1,-1,-1,
  124,-1,-1,-1,-1,-1,-1,-1,-1,
  57,-1,-1,-1,-1,-1,-1,-1,-1,
  142,-1,-1,-1,-1,-1,-1,-1,-1,
  94,-1,-1,-1,-1,-1,-1,-1,-1,
  88,-1,-1,-1,-1,-1,-1,-1,-1,
  55,-1,-1,-1,-1,-1,-1,-1,-1,
  140,86,-1,-1,-1,-1,-1,-1,-1,
  145,-1,-1,-1,-1,-1,-1,-1,-1,
  132,-1,-1,-1,-1,-1,-1,-1,-1,
  124,-1,-1,-1,-1,-1,-1,-1,-1,
  57,-1,-1,-1,-1,-1,-1,-1,-1,
  280,167,142,-1,-1,-1,-1,-1,-1,
  94,-1,-1,-1,-1,-1,-1,-1,-1,
  88,-1,-1,-1,-1,-1,-1,-1,-1,
  55,-1,-1,-1,-1,-1,-1,-1,-1,
  140,86,-1,-1,-1,-1,-1,-1,-1,
  145,-1,-1,-1,-1,-1,-1,-1,-1,
  132,-1,-1,-1,-1,-1,-1,-1,-1,
  124,-1,-1,-1,-1,-1,-1,-1,-1,
  57,-1,-1,-1,-1,-1,-1,-1,-1,
  319,193,142,-1,-1,-1,-1,-1,-1,
  94,-1,-1,-1,-1,-1,-1,-1,-1,
  88,-1,-1,-1,-1,-1,-1,-1,-1,
  55,-1,-1,-1,-1,-1,-1,-1,-1,
  140,86,-1,-1,-1,-1,-1,-1,-1,
  145,-1,-1,-1,-1,-1,-1,-1,-1,
  132,-1,-1,-1,-1,-1,-1,-1,-1,
  124,-1,-1,-1,-1,-1,-1,-1,-1,
  57,-1,-1,-1,-1,-1,-1,-1,-1,
  275,174,142,-1,-1,-1,-1,-1,-1,
  94,-1,-1,-1,-1,-1,-1,-1,-1,
  88,-1,-1,-1,-1,-1,-1,-1,-1,
  55,-1,-1,-1,-1,-1,-1,-1,-1,
  121,86,-1,-1,-1,-1,-1,-1,-1,
  145,-1,-1,-1,-1,-1,-1,-1,-1,
  132,-1,-1,-1,-1,-1,-1,-1,-1,
  402,218,185,133,124,-1,-1,-1,-1,
  57,-1,-1,-1,-1,-1,-1,-1,-1,
  149,142,-1,-1,-1,-1,-1,-1,-1,
  94,-1,-1,-1,-1,-1,-1,-1,-1,
  88,-1,-1,-1,-1,-1,-1,-1,-1,
  55,-1,-1,-1,-1,-1,-1,-1,-1,
  140,86,-1,-1,-1,-1,-1,-1,-1,
  145,-1,-1,-1,-1,-1,-1,-1,-1,
  132,-1,-1,-1,-1,-1,-1,-1,-1,
  124,-1,-1,-1,-1,-1,-1,-1,-1 ]);
height = array3d(ROWS,COLS,CONFIGS, [
  36,-1,-1,-1,-1,-1,-1,-1,-1,
  36,-1,-1,-1,-1,-1,-1,-1,-1,
  36,61,86,-1,-1,-1,-1,-1,-1,
  36,61,86,-1,-1,-1,-1,-1,-1,
  36,-1,-1,-1,-1,-1,-1,-1,-1,
  36,61,-1,-1,-1,-1,-1,-1,-1,
  36,-1,-1,-1,-1,-1,-1,-1,-1,
  36,-1,-1,-1,-1,-1,-1,-1,-1,
  36,-1,-1,-1,-1,-1,-1,-1,-1,
  36,-1,-1,-1,-1,-1,-1,-1,-1,
  36,-1,-1,-1,-1,-1,-1,-1,-1,
  36,-1,-1,-1,-1,-1,-1,-1,-1,
  36,-1,-1,-1,-1,-1,-1,-1,-1,
  36,-1,-1,-1,-1,-1,-1,-1,-1,
  36,61,-1,-1,-1,-1,-1,-1,-1,
  36,-1,-1,-1,-1,-1,-1,-1,-1,
  36,-1,-1,-1,-1,-1,-1,-1,-1,
  36,61,86,111,136,186,-1,-1,-1,
  36,-1,-1,-1,-1,-1,-1,-1,-1,
  36,61,86,-1,-1,-1,-1,-1,-1,
  36,-1,-1,-1,-1,-1,-1,-1,-1,
  36,-1,-1,-1,-1,-1,-1,-1,-1,
  36,61,-1,-1,-1,-1,-1,-1,-1,
  36,61,-1,-1,-1,-1,-1,-1,-1,
  36,-1,-1,-1,-1,-1,-1,-1,-1,
  36,-1,-1,-1,-1,-1,-1,-1,-1,
  36,-1,-1,-1,-1,-1,-1,-1,-1,
  36,-1,-1,-1,-1,-1,-1,-1,-1,
  36,-1,-1,-1,-1,-1,-1,-1,-1,
  36,-1,-1,-1,-1,-1,-1,-1,-1,
  36,-1,-1,-1,-1,-1,-1,-1,-1,
  36,-1,-1,-1,-1,-1,-1,-1,-1,
  36,61,-1,-1,-1,-1,-1,-1,-1,
  36,-1,-1,-1,-1,-1,-1,-1,-1,
  36,-1,-1,-1,-1,-1,-1,-1,-1,
  36,61,86,111,136,-1,-1,-1,-1,
  36,-1,-1,-1,-1,-1,-1,-1,-1,
  36,61,-1,-1,-1,-1,-1,-1,-1,
  36,-1,-1,-1,-1,-1,-1,-1,-1,
  36,-1,-1,-1,-1,-1,-1,-1,-1,
  36,-1,-1,-1,-1,-1,-1,-1,-1,
  36,61,-1,-1,-1,-1,-1,-1,-1,
  36,-1,-1,-1,-1,-1,-1,-1,-1,
  36,-1,-1,-1,-1,-1,-1,-1,-1,
  36,61,86,111,136,161,186,211,236,
  36,-1,-1,-1,-1,-1,-1,-1,-1,
  36,61,-1,-1,-1,-1,-1,-1,-1,
  36,-1,-1,-1,-1,-1,-1,-1,-1,
  36,-1,-1,-1,-1,-1,-1,-1,-1,
  36,-1,-1,-1,-1,-1,-1,-1,-1,
  36,61,-1,-1,-1,-1,-1,-1,-1,
  36,-1,-1,-1,-1,-1,-1,-1,-1,
  36,-1,-1,-1,-1,-1,-1,-1,-1,
  36,61,86,111,-1,-1,-1,-1,-1,
  36,-1,-1,-1,-1,-1,-1,-1,-1,
  36,-1,-1,-1,-1,-1,-1,-1,-1,
  36,-1,-1,-1,-1,-1,-1,-1,-1,
  36,-1,-1,-1,-1,-1,-1,-1,-1,
  36,-1,-1,-1,-1,-1,-1,-1,-1,
  36,61,-1,-1,-1,-1,-1,-1,-1,
  36,-1,-1,-1,-1,-1,-1,-1,-1,
  36,-1,-1,-1,-1,-1,-1,-1,-1,
  36,-1,-1,-1,-1,-1,-1,-1,-1,
  36,-1,-1,-1,-1,-1,-1,-1,-1,
  36,61,-1,-1,-1,-1,-1,-1,-1,
  36,-1,-1,-1,-1,-1,-1,-1,-1,
  36,-1,-1,-1,-1,-1,-1,-1,-1,
  36,-1,-1,-1,-1,-1,-1,-1,-1,
  36,61,-1,-1,-1,-1,-1,-1,-1,
  36,-1,-1,-1,-1,-1,-1,-1,-1,
  36,-1,-1,-1,-1,-1,-1,-1,-1,
  36,-1,-1,-1,-1,-1,-1,-1,-1,
  36,-1,-1,-1,-1,-1,-1,-1,-1,
  36,61,86,-1,-1,-1,-1,-1,-1,
  36,-1,-1,-1,-1,-1,-1,-1,-1,
  36,-1,-1,-1,-1,-1,-1,-1,-1,
  36,-1,-1,-1,-1,-1,-1,-1,-1,
  36,61,-1,-1,-1,-1,-1,-1,-1,
  36,-1,-1,-1,-1,-1,-1,-1,-1,
  36,-1,-1,-1,-1,-1,-1,-1,-1,
  36,-1,-1,-1,-1,-1,-1,-1,-1,
  36,-1,-1,-1,-1,-1,-1,-1,-1,
  36,61,-1,-1,-1,-1,-1,-1,-1,
  36,-1,-1,-1,-1,-1,-1,-1,-1,
  36,-1,-1,-1,-1,-1,-1,-1,-1,
  36,-1,-1,-1,-1,-1,-1,-1,-1,
  36,61,-1,-1,-1,-1,-1,-1,-1,
  36,-1,-1,-1,-1,-1,-1,-1,-1,
  36,-1,-1,-1,-1,-1,-1,-1,-1,
  36,-1,-1,-1,-1,-1,-1,-1,-1,
  36,-1,-1,-1,-1,-1,-1,-1,-1,
  36,-1,-1,-1,-1,-1,-1,-1,-1,
  36,-1,-1,-1,-1,-1,-1,-1,-1,
  36,-1,-1,-1,-1,-1,-1,-1,-1,
  36,-1,-1,-1,-1,-1,-1,-1,-1,
  36,61,-1,-1,-1,-1,-1,-1,-1,
  36,-1,-1,-1,-1,-1,-1,-1,-1,
  36,-1,-1,-1,-1,-1,-1,-1,-1,
  36,61,86,111,-1,-1,-1,-1,-1,
  36,-1,-1,-1,-1,-1,-1,-1,-1,
  36,-1,-1,-1,-1,-1,-1,-1,-1,
  36,-1,-1,-1,-1,-1,-1,-1,-1,
  36,-1,-1,-1,-1,-1,-1,-1,-1,
  36,-1,-1,-1,-1,-1,-1,-1,-1,
  36,61,-1,-1,-1,-1,-1,-1,-1,
  36,-1,-1,-1,-1,-1,-1,-1,-1,
  36,-1,-1,-1,-1,-1,-1,-1,-1,
  36,61,86,-1,-1,-1,-1,-1,-1,
  36,-1,-1,-1,-1,-1,-1,-1,-1,
  36,61,-1,-1,-1,-1,-1,-1,-1,
  36,-1,-1,-1,-1,-1,-1,-1,-1,
  36,-1,-1,-1,-1,-1,-1,-1,-1,
  36,-1,-1,-1,-1,-1,-1,-1,-1,
  36,61,-1,-1,-1,-1,-1,-1,-1,
  36,-1,-1,-1,-1,-1,-1,-1,-1,
  36,-1,-1,-1,-1,-1,-1,-1,-1,
  36,61,-1,-1,-1,-1,-1,-1,-1,
  36,-1,-1,-1,-1,-1,-1,-1,-1,
  36,61,-1,-1,-1,-1,-1,-1,-1,
  36,-1,-1,-1,-1,-1,-1,-1,-1,
  36,-1,-1,-1,-1,-1,-1,-1,-1,
  36,-1,-1,-1,-1,-1,-1,-1,-1,
  36,61,-1,-1,-1,-1,-1,-1,-1,
  36,-1,-1,-1,-1,-1,-1,-1,-1,
  36,-1,-1,-1,-1,-1,-1,-1,-1,
  36,-1,-1,-1,-1,-1,-1,-1,-1,
  36,-1,-1,-1,-1,-1,-1,-1,-1,
  36,61,-1,-1,-1,-1,-1,-1,-1,
  36,-1,-1,-1,-1,-1,-1,-1,-1,
  36,-1,-1,-1,-1,-1,-1,-1,-1,
  36,-1,-1,-1,-1,-1,-1,-1,-1,
  36,61,-1,-1,-1,-1,-1,-1,-1,
  36,-1,-1,-1,-1,-1,-1,-1,-1,
  36,-1,-1,-1,-1,-1,-1,-1,-1,
  36,-1,-1,-1,-1,-1,-1,-1,-1,
  36,-1,-1,-1,-1,-1,-1,-1,-1,
  36,61,-1,-1,-1,-1,-1,-1,-1,
  36,-1,-1,-1,-1,-1,-1,-1,-1,
  36,-1,-1,-1,-1,-1,-1,-1,-1,
  36,-1,-1,-1,-1,-1,-1,-1,-1,
  36,61,-1,-1,-1,-1,-1,-1,-1,
  36,-1,-1,-1,-1,-1,-1,-1,-1,
  36,-1,-1,-1,-1,-1,-1,-1,-1,
  36,61,86,-1,-1,-1,-1,-1,-1,
  36,-1,-1,-1,-1,-1,-1,-1,-1,
  36,61,-1,-1,-1,-1,-1,-1,-1,
  36,-1,-1,-1,-1,-1,-1,-1,-1,
  36,-1,-1,-1,-1,-1,-1,-1,-1,
  36,-1,-1,-1,-1,-1,-1,-1,-1,
  36,61,-1,-1,-1,-1,-1,-1,-1,
  36,-1,-1,-1,-1,-1,-1,-1,-1,
  36,-1,-1,-1,-1,-1,-1,-1,-1,
  36,61,-1,-1,-1,-1,-1,-1,-1,
  36,-1,-1,-1,-1,-1,-1,-1,-1,
  36,61,-1,-1,-1,-1,-1,-1,-1,
  36,-1,-1,-1,-1,-1,-1,-1,-1,
  36,-1,-1,-1,-1,-1,-1,-1,-1,
  36,-1,-1,-1,-1,-1,-1,-1,-1,
  36,61,-1,-1,-1,-1,-1,-1,-1,
  36,61,-1,-1,-1,-1,-1,-1,-1,
  36,-1,-1,-1,-1,-1,-1,-1,-1,
  36,61,86,111,136,-1,-1,-1,-1,
  36,-1,-1,-1,-1,-1,-1,-1,-1,
  36,61,-1,-1,-1,-1,-1,-1,-1,
  36,-1,-1,-1,-1,-1,-1,-1,-1,
  36,-1,-1,-1,-1,-1,-1,-1,-1,
  36,-1,-1,-1,-1,-1,-1,-1,-1,
  36,61,-1,-1,-1,-1,-1,-1,-1,
  36,-1,-1,-1,-1,-1,-1,-1,-1,
  36,-1,-1,-1,-1,-1,-1,-1,-1,
  36,61,86,111,-1,-1,-1,-1,-1,
  36,-1,-1,-1,-1,-1,-1,-1,-1,
  36,-1,-1,-1,-1,-1,-1,-1,-1,
  36,-1,-1,-1,-1,-1,-1,-1,-1,
  36,-1,-1,-1,-1,-1,-1,-1,-1,
  36,-1,-1,-1,-1,-1,-1,-1,-1,
  36,61,-1,-1,-1,-1,-1,-1,-1,
  36,-1,-1,-1,-1,-1,-1,-1,-1,
  36,-1,-1,-1,-1,-1,-1,-1,-1,
  36,-1,-1,-1,-1,-1,-1,-1,-1,
  36,-1,-1,-1,-1,-1,-1,-1,-1,
  36,-1,-1,-1,-1,-1,-1,-1,-1,
  36,-1,-1,-1,-1,-1,-1,-1,-1,
  36,-1,-1,-1,-1,-1,-1,-1,-1,
  36,-1,-1,-1,-1,-1,-1,-1,-1,
  36,61,-1,-1,-1,-1,-1,-1,-1,
  36,-1,-1,-1,-1,-1,-1,-1,-1,
  36,-1,-1,-1,-1,-1,-1,-1,-1,
  36,-1,-1,-1,-1,-1,-1,-1,-1,
  36,-1,-1,-1,-1,-1,-1,-1,-1,
  36,-1,-1,-1,-1,-1,-1,-1,-1,
  36,-1,-1,-1,-1,-1,-1,-1,-1,
  36,-1,-1,-1,-1,-1,-1,-1,-1,
  36,-1,-1,-1,-1,-1,-1,-1,-1,
  36,61,-1,-1,-1,-1,-1,-1,-1,
  36,-1,-1,-1,-1,-1,-1,-1,-1,
  36,-1,-1,-1,-1,-1,-1,-1,-1,
  36,-1,-1,-1,-1,-1,-1,-1,-1,
  36,-1,-1,-1,-1,-1,-1,-1,-1,
  36,-1,-1,-1,-1,-1,-1,-1,-1,
  36,-1,-1,-1,-1,-1,-1,-1,-1,
  36,-1,-1,-1,-1,-1,-1,-1,-1,
  36,-1,-1,-1,-1,-1,-1,-1,-1,
  36,61,-1,-1,-1,-1,-1,-1,-1,
  36,-1,-1,-1,-1,-1,-1,-1,-1,
  36,-1,-1,-1,-1,-1,-1,-1,-1,
  36,61,86,-1,-1,-1,-1,-1,-1,
  36,-1,-1,-1,-1,-1,-1,-1,-1,
  36,61,-1,-1,-1,-1,-1,-1,-1,
  36,-1,-1,-1,-1,-1,-1,-1,-1,
  36,-1,-1,-1,-1,-1,-1,-1,-1,
  36,-1,-1,-1,-1,-1,-1,-1,-1,
  36,61,-1,-1,-1,-1,-1,-1,-1,
  36,61,-1,-1,-1,-1,-1,-1,-1,
  36,61,-1,-1,-1,-1,-1,-1,-1,
  36,61,86,111,136,-1,-1,-1,-1,
  36,-1,-1,-1,-1,-1,-1,-1,-1,
  36,-1,-1,-1,-1,-1,-1,-1,-1,
  36,-1,-1,-1,-1,-1,-1,-1,-1,
  36,-1,-1,-1,-1,-1,-1,-1,-1,
  36,-1,-1,-1,-1,-1,-1,-1,-1,
  36,61,-1,-1,-1,-1,-1,-1,-1,
  36,61,-1,-1,-1,-1,-1,-1,-1,
  36,61,-1,-1,-1,-1,-1,-1,-1,
  36,-1,-1,-1,-1,-1,-1,-1,-1,
  36,-1,-1,-1,-1,-1,-1,-1,-1,
  36,-1,-1,-1,-1,-1,-1,-1,-1,
  36,-1,-1,-1,-1,-1,-1,-1,-1,
  36,-1,-1,-1,-1,-1,-1,-1,-1,
  36,-1,-1,-1,-1,-1,-1,-1,-1,
  36,61,-1,-1,-1,-1,-1,-1,-1,
  36,61,-1,-1,-1,-1,-1,-1,-1,
  36,-1,-1,-1,-1,-1,-1,-1,-1,
  36,61,86,111,136,-1,-1,-1,-1,
  36,-1,-1,-1,-1,-1,-1,-1,-1,
  36,-1,-1,-1,-1,-1,-1,-1,-1,
  36,-1,-1,-1,-1,-1,-1,-1,-1,
  36,-1,-1,-1,-1,-1,-1,-1,-1,
  36,-1,-1,-1,-1,-1,-1,-1,-1,
  36,61,-1,-1,-1,-1,-1,-1,-1,
  36,61,-1,-1,-1,-1,-1,-1,-1,
  36,-1,-1,-1,-1,-1,-1,-1,-1,
  36,-1,-1,-1,-1,-1,-1,-1,-1,
  36,-1,-1,-1,-1,-1,-1,-1,-1,
  36,61,-1,-1,-1,-1,-1,-1,-1,
  36,-1,-1,-1,-1,-1,-1,-1,-1,
  36,-1,-1,-1,-1,-1,-1,-1,-1,
  36,-1,-1,-1,-1,-1,-1,-1,-1,
  36,61,-1,-1,-1,-1,-1,-1,-1,
  36,-1,-1,-1,-1,-1,-1,-1,-1,
  36,-1,-1,-1,-1,-1,-1,-1,-1,
  36,-1,-1,-1,-1,-1,-1,-1,-1,
  36,-1,-1,-1,-1,-1,-1,-1,-1,
  36,-1,-1,-1,-1,-1,-1,-1,-1,
  36,-1,-1,-1,-1,-1,-1,-1,-1,
  36,-1,-1,-1,-1,-1,-1,-1,-1,
  36,-1,-1,-1,-1,-1,-1,-1,-1,
  36,61,-1,-1,-1,-1,-1,-1,-1,
  36,-1,-1,-1,-1,-1,-1,-1,-1,
  36,-1,-1,-1,-1,-1,-1,-1,-1,
  36,61,86,111,136,161,186,211,236,
  36,-1,-1,-1,-1,-1,-1,-1,-1,
  36,61,-1,-1,-1,-1,-1,-1,-1,
  36,-1,-1,-1,-1,-1,-1,-1,-1,
  36,-1,-1,-1,-1,-1,-1,-1,-1,
  36,-1,-1,-1,-1,-1,-1,-1,-1,
  36,61,-1,-1,-1,-1,-1,-1,-1,
  36,61,-1,-1,-1,-1,-1,-1,-1,
  36,61,-1,-1,-1,-1,-1,-1,-1,
  36,-1,-1,-1,-1,-1,-1,-1,-1,
  36,-1,-1,-1,-1,-1,-1,-1,-1,
  36,61,-1,-1,-1,-1,-1,-1,-1,
  36,-1,-1,-1,-1,-1,-1,-1,-1,
  36,-1,-1,-1,-1,-1,-1,-1,-1,
  36,-1,-1,-1,-1,-1,-1,-1,-1,
  36,61,-1,-1,-1,-1,-1,-1,-1,
  36,-1,-1,-1,-1,-1,-1,-1,-1,
  36,-1,-1,-1,-1,-1,-1,-1,-1,
  36,61,-1,-1,-1,-1,-1,-1,-1,
  36,-1,-1,-1,-1,-1,-1,-1,-1,
  36,-1,-1,-1,-1,-1,-1,-1,-1,
  36,-1,-1,-1,-1,-1,-1,-1,-1,
  36,-1,-1,-1,-1,-1,-1,-1,-1,
  36,-1,-1,-1,-1,-1,-1,-1,-1,
  36,61,-1,-1,-1,-1,-1,-1,-1,
  36,-1,-1,-1,-1,-1,-1,-1,-1,
  36,-1,-1,-1,-1,-1,-1,-1,-1,
  36,61,-1,-1,-1,-1,-1,-1,-1,
  36,-1,-1,-1,-1,-1,-1,-1,-1,
  36,61,-1,-1,-1,-1,-1,-1,-1,
  36,-1,-1,-1,-1,-1,-1,-1,-1,
  36,-1,-1,-1,-1,-1,-1,-1,-1,
  36,-1,-1,-1,-1,-1,-1,-1,-1,
  36,61,-1,-1,-1,-1,-1,-1,-1,
  36,-1,-1,-1,-1,-1,-1,-1,-1,
  36,-1,-1,-1,-1,-1,-1,-1,-1,
  36,-1,-1,-1,-1,-1,-1,-1,-1,
  36,-1,-1,-1,-1,-1,-1,-1,-1,
  36,-1,-1,-1,-1,-1,-1,-1,-1,
  36,-1,-1,-1,-1,-1,-1,-1,-1,
  36,-1,-1,-1,-1,-1,-1,-1,-1,
  36,-1,-1,-1,-1,-1,-1,-1,-1,
  36,61,-1,-1,-1,-1,-1,-1,-1,
  36,-1,-1,-1,-1,-1,-1,-1,-1,
  36,-1,-1,-1,-1,-1,-1,-1,-1,
  36,-1,-1,-1,-1,-1,-1,-1,-1,
  36,-1,-1,-1,-1,-1,-1,-1,-1,
  36,-1,-1,-1,-1,-1,-1,-1,-1,
  36,-1,-1,-1,-1,-1,-1,-1,-1,
  36,-1,-1,-1,-1,-1,-1,-1,-1,
  36,-1,-1,-1,-1,-1,-1,-1,-1,
  36,61,-1,-1,-1,-1,-1,-1,-1,
  36,61,-1,-1,-1,-1,-1,-1,-1,
  36,61,-1,-1,-1,-1,-1,-1,-1,
  36,-1,-1,-1,-1,-1,-1,-1,-1,
  36,-1,-1,-1,-1,-1,-1,-1,-1,
  36,61,86,-1,-1,-1,-1,-1,-1,
  36,-1,-1,-1,-1,-1,-1,-1,-1,
  36,-1,-1,-1,-1,-1,-1,-1,-1,
  36,-1,-1,-1,-1,-1,-1,-1,-1,
  36,61,-1,-1,-1,-1,-1,-1,-1,
  36,61,-1,-1,-1,-1,-1,-1,-1,
  36,61,-1,-1,-1,-1,-1,-1,-1,
  36,-1,-1,-1,-1,-1,-1,-1,-1,
  36,-1,-1,-1,-1,-1,-1,-1,-1,
  36,61,-1,-1,-1,-1,-1,-1,-1,
  36,-1,-1,-1,-1,-1,-1,-1,-1,
  36,-1,-1,-1,-1,-1,-1,-1,-1,
  36,-1,-1,-1,-1,-1,-1,-1,-1,
  36,61,-1,-1,-1,-1,-1,-1,-1,
  36,-1,-1,-1,-1,-1,-1,-1,-1,
  36,-1,-1,-1,-1,-1,-1,-1,-1,
  36,-1,-1,-1,-1,-1,-1,-1,-1,
  36,-1,-1,-1,-1,-1,-1,-1,-1,
  36,61,-1,-1,-1,-1,-1,-1,-1,
  36,-1,-1,-1,-1,-1,-1,-1,-1,
  36,-1,-1,-1,-1,-1,-1,-1,-1,
  36,-1,-1,-1,-1,-1,-1,-1,-1,
  36,61,-1,-1,-1,-1,-1,-1,-1,
  36,-1,-1,-1,-1,-1,-1,-1,-1,
  36,-1,-1,-1,-1,-1,-1,-1,-1,
  36,-1,-1,-1,-1,-1,-1,-1,-1,
  36,-1,-1,-1,-1,-1,-1,-1,-1,
  36,61,86,-1,-1,-1,-1,-1,-1,
  36,-1,-1,-1,-1,-1,-1,-1,-1,
  36,-1,-1,-1,-1,-1,-1,-1,-1,
  36,-1,-1,-1,-1,-1,-1,-1,-1,
  36,61,-1,-1,-1,-1,-1,-1,-1,
  36,-1,-1,-1,-1,-1,-1,-1,-1,
  36,-1,-1,-1,-1,-1,-1,-1,-1,
  36,-1,-1,-1,-1,-1,-1,-1,-1,
  36,-1,-1,-1,-1,-1,-1,-1,-1,
  36,61,-1,-1,-1,-1,-1,-1,-1,
  36,-1,-1,-1,-1,-1,-1,-1,-1,
  36,-1,-1,-1,-1,-1,-1,-1,-1,
  36,-1,-1,-1,-1,-1,-1,-1,-1,
  36,61,-1,-1,-1,-1,-1,-1,-1,
  36,-1,-1,-1,-1,-1,-1,-1,-1,
  36,-1,-1,-1,-1,-1,-1,-1,-1,
  36,-1,-1,-1,-1,-1,-1,-1,-1,
  36,-1,-1,-1,-1,-1,-1,-1,-1,
  36,-1,-1,-1,-1,-1,-1,-1,-1,
  36,-1,-1,-1,-1,-1,-1,-1,-1,
  36,-1,-1,-1,-1,-1,-1,-1,-1,
  36,-1,-1,-1,-1,-1,-1,-1,-1,
  36,61,-1,-1,-1,-1,-1,-1,-1,
  36,-1,-1,-1,-1,-1,-1,-1,-1,
  36,-1,-1,-1,-1,-1,-1,-1,-1,
  36,-1,-1,-1,-1,-1,-1,-1,-1,
  36,-1,-1,-1,-1,-1,-1,-1,-1,
  36,-1,-1,-1,-1,-1,-1,-1,-1,
  36,-1,-1,-1,-1,-1,-1,-1,-1,
  36,-1,-1,-1,-1,-1,-1,-1,-1,
  36,-1,-1,-1,-1,-1,-1,-1,-1,
  36,61,-1,-1,-1,-1,-1,-1,-1,
  36,-1,-1,-1,-1,-1,-1,-1,-1,
  36,-1,-1,-1,-1,-1,-1,-1,-1,
  36,-1,-1,-1,-1,-1,-1,-1,-1,
  36,-1,-1,-1,-1,-1,-1,-1,-1,
  36,61,86,-1,-1,-1,-1,-1,-1,
  36,-1,-1,-1,-1,-1,-1,-1,-1,
  36,-1,-1,-1,-1,-1,-1,-1,-1,
  36,-1,-1,-1,-1,-1,-1,-1,-1,
  36,61,-1,-1,-1,-1,-1,-1,-1,
  36,-1,-1,-1,-1,-1,-1,-1,-1,
  36,-1,-1,-1,-1,-1,-1,-1,-1,
  36,-1,-1,-1,-1,-1,-1,-1,-1,
  36,-1,-1,-1,-1,-1,-1,-1,-1,
  36,61,-1,-1,-1,-1,-1,-1,-1,
  36,-1,-1,-1,-1,-1,-1,-1,-1,
  36,-1,-1,-1,-1,-1,-1,-1,-1,
  36,-1,-1,-1,-1,-1,-1,-1,-1,
  36,61,-1,-1,-1,-1,-1,-1,-1,
  36,-1,-1,-1,-1,-1,-1,-1,-1,
  36,-1,-1,-1,-1,-1,-1,-1,-1,
  36,-1,-1,-1,-1,-1,-1,-1,-1,
  36,-1,-1,-1,-1,-1,-1,-1,-1,
  36,61,-1,-1,-1,-1,-1,-1,-1,
  36,-1,-1,-1,-1,-1,-1,-1,-1,
  36,-1,-1,-1,-1,-1,-1,-1,-1,
  36,-1,-1,-1,-1,-1,-1,-1,-1,
  36,61,-1,-1,-1,-1,-1,-1,-1,
  36,-1,-1,-1,-1,-1,-1,-1,-1,
  36,-1,-1,-1,-1,-1,-1,-1,-1,
  36,61,-1,-1,-1,-1,-1,-1,-1,
  36,-1,-1,-1,-1,-1,-1,-1,-1,
  36,-1,-1,-1,-1,-1,-1,-1,-1,
  36,-1,-1,-1,-1,-1,-1,-1,-1,
  36,-1,-1,-1,-1,-1,-1,-1,-1,
  36,-1,-1,-1,-1,-1,-1,-1,-1,
  36,61,-1,-1,-1,-1,-1,-1,-1,
  36,-1,-1,-1,-1,-1,-1,-1,-1,
  36,61,-1,-1,-1,-1,-1,-1,-1,
  36,-1,-1,-1,-1,-1,-1,-1,-1,
  36,-1,-1,-1,-1,-1,-1,-1,-1,
  36,61,86,-1,-1,-1,-1,-1,-1,
  36,-1,-1,-1,-1,-1,-1,-1,-1,
  36,-1,-1,-1,-1,-1,-1,-1,-1,
  36,-1,-1,-1,-1,-1,-1,-1,-1,
  36,61,-1,-1,-1,-1,-1,-1,-1,
  36,-1,-1,-1,-1,-1,-1,-1,-1,
  36,-1,-1,-1,-1,-1,-1,-1,-1,
  36,-1,-1,-1,-1,-1,-1,-1,-1,
  36,-1,-1,-1,-1,-1,-1,-1,-1,
  36,-1,-1,-1,-1,-1,-1,-1,-1,
  36,-1,-1,-1,-1,-1,-1,-1,-1,
  36,-1,-1,-1,-1,-1,-1,-1,-1,
  36,-1,-1,-1,-1,-1,-1,-1,-1,
  36,61,-1,-1,-1,-1,-1,-1,-1,
  36,61,-1,-1,-1,-1,-1,-1,-1,
  36,-1,-1,-1,-1,-1,-1,-1,-1,
  36,-1,-1,-1,-1,-1,-1,-1,-1,
  36,-1,-1,-1,-1,-1,-1,-1,-1,
  36,61,86,-1,-1,-1,-1,-1,-1,
  36,-1,-1,-1,-1,-1,-1,-1,-1,
  36,-1,-1,-1,-1,-1,-1,-1,-1,
  36,-1,-1,-1,-1,-1,-1,-1,-1,
  36,61,-1,-1,-1,-1,-1,-1,-1,
  36,-1,-1,-1,-1,-1,-1,-1,-1,
  36,-1,-1,-1,-1,-1,-1,-1,-1,
  36,-1,-1,-1,-1,-1,-1,-1,-1,
  36,-1,-1,-1,-1,-1,-1,-1,-1,
  36,61,-1,-1,-1,-1,-1,-1,-1,
  36,-1,-1,-1,-1,-1,-1,-1,-1,
  36,-1,-1,-1,-1,-1,-1,-1,-1,
  36,-1,-1,-1,-1,-1,-1,-1,-1,
  36,61,-1,-1,-1,-1,-1,-1,-1,
  36,-1,-1,-1,-1,-1,-1,-1,-1,
  36,-1,-1,-1,-1,-1,-1,-1,-1,
  36,-1,-1,-1,-1,-1,-1,-1,-1,
  36,-1,-1,-1,-1,-1,-1,-1,-1,
  36,-1,-1,-1,-1,-1,-1,-1,-1,
  36,-1,-1,-1,-1,-1,-1,-1,-1,
  36,-1,-1,-1,-1,-1,-1,-1,-1,
  36,-1,-1,-1,-1,-1,-1,-1,-1,
  36,61,-1,-1,-1,-1,-1,-1,-1,
  36,61,-1,-1,-1,-1,-1,-1,-1,
  36,61,-1,-1,-1,-1,-1,-1,-1,
  36,-1,-1,-1,-1,-1,-1,-1,-1,
  36,-1,-1,-1,-1,-1,-1,-1,-1,
  36,-1,-1,-1,-1,-1,-1,-1,-1,
  36,-1,-1,-1,-1,-1,-1,-1,-1,
  36,-1,-1,-1,-1,-1,-1,-1,-1,
  36,-1,-1,-1,-1,-1,-1,-1,-1,
  36,61,-1,-1,-1,-1,-1,-1,-1,
  36,-1,-1,-1,-1,-1,-1,-1,-1,
  36,-1,-1,-1,-1,-1,-1,-1,-1,
  36,-1,-1,-1,-1,-1,-1,-1,-1,
  36,-1,-1,-1,-1,-1,-1,-1,-1,
  36,61,-1,-1,-1,-1,-1,-1,-1,
  36,-1,-1,-1,-1,-1,-1,-1,-1,
  36,-1,-1,-1,-1,-1,-1,-1,-1,
  36,-1,-1,-1,-1,-1,-1,-1,-1,
  36,61,-1,-1,-1,-1,-1,-1,-1,
  36,-1,-1,-1,-1,-1,-1,-1,-1,
  36,-1,-1,-1,-1,-1,-1,-1,-1,
  36,-1,-1,-1,-1,-1,-1,-1,-1,
  36,-1,-1,-1,-1,-1,-1,-1,-1,
  36,61,-1,-1,-1,-1,-1,-1,-1,
  36,-1,-1,-1,-1,-1,-1,-1,-1,
  36,-1,-1,-1,-1,-1,-1,-1,-1,
  36,-1,-1,-1,-1,-1,-1,-1,-1,
  36,61,-1,-1,-1,-1,-1,-1,-1,
  36,-1,-1,-1,-1,-1,-1,-1,-1,
  36,-1,-1,-1,-1,-1,-1,-1,-1,
  36,-1,-1,-1,-1,-1,-1,-1,-1,
  36,-1,-1,-1,-1,-1,-1,-1,-1,
  36,-1,-1,-1,-1,-1,-1,-1,-1,
  36,-1,-1,-1,-1,-1,-1,-1,-1,
  36,-1,-1,-1,-1,-1,-1,-1,-1,
  36,-1,-1,-1,-1,-1,-1,-1,-1,
  36,61,-1,-1,-1,-1,-1,-1,-1,
  36,-1,-1,-1,-1,-1,-1,-1,-1,
  36,-1,-1,-1,-1,-1,-1,-1,-1,
  36,-1,-1,-1,-1,-1,-1,-1,-1,
  36,-1,-1,-1,-1,-1,-1,-1,-1,
  36,61,-1,-1,-1,-1,-1,-1,-1,
  36,-1,-1,-1,-1,-1,-1,-1,-1,
  36,-1,-1,-1,-1,-1,-1,-1,-1,
  36,-1,-1,-1,-1,-1,-1,-1,-1,
  36,61,-1,-1,-1,-1,-1,-1,-1,
  36,-1,-1,-1,-1,-1,-1,-1,-1,
  36,-1,-1,-1,-1,-1,-1,-1,-1,
  36,-1,-1,-1,-1,-1,-1,-1,-1,
  36,-1,-1,-1,-1,-1,-1,-1,-1,
  36,61,-1,-1,-1,-1,-1,-1,-1,
  36,-1,-1,-1,-1,-1,-1,-1,-1,
  36,-1,-1,-1,-1,-1,-1,-1,-1,
  36,-1,-1,-1,-1,-1,-1,-1,-1,
  36,61,-1,-1,-1,-1,-1,-1,-1,
  36,-1,-1,-1,-1,-1,-1,-1,-1,
  36,-1,-1,-1,-1,-1,-1,-1,-1,
  36,-1,-1,-1,-1,-1,-1,-1,-1,
  36,-1,-1,-1,-1,-1,-1,-1,-1,
  36,61,-1,-1,-1,-1,-1,-1,-1,
  36,-1,-1,-1,-1,-1,-1,-1,-1,
  36,-1,-1,-1,-1,-1,-1,-1,-1,
  36,-1,-1,-1,-1,-1,-1,-1,-1,
  36,61,-1,-1,-1,-1,-1,-1,-1,
  36,-1,-1,-1,-1,-1,-1,-1,-1,
  36,-1,-1,-1,-1,-1,-1,-1,-1,
  36,-1,-1,-1,-1,-1,-1,-1,-1,
  36,-1,-1,-1,-1,-1,-1,-1,-1,
  36,61,86,111,-1,-1,-1,-1,-1,
  36,-1,-1,-1,-1,-1,-1,-1,-1,
  36,-1,-1,-1,-1,-1,-1,-1,-1,
  36,-1,-1,-1,-1,-1,-1,-1,-1,
  36,61,-1,-1,-1,-1,-1,-1,-1,
  36,-1,-1,-1,-1,-1,-1,-1,-1,
  36,-1,-1,-1,-1,-1,-1,-1,-1,
  36,-1,-1,-1,-1,-1,-1,-1,-1,
  36,-1,-1,-1,-1,-1,-1,-1,-1,
  36,-1,-1,-1,-1,-1,-1,-1,-1,
  36,-1,-1,-1,-1,-1,-1,-1,-1,
  36,-1,-1,-1,-1,-1,-1,-1,-1,
  36,-1,-1,-1,-1,-1,-1,-1,-1,
  36,61,-1,-1,-1,-1,-1,-1,-1,
  36,-1,-1,-1,-1,-1,-1,-1,-1,
  36,-1,-1,-1,-1,-1,-1,-1,-1,
  36,-1,-1,-1,-1,-1,-1,-1,-1,
  36,-1,-1,-1,-1,-1,-1,-1,-1,
  36,61,-1,-1,-1,-1,-1,-1,-1,
  36,-1,-1,-1,-1,-1,-1,-1,-1,
  36,-1,-1,-1,-1,-1,-1,-1,-1,
  36,-1,-1,-1,-1,-1,-1,-1,-1,
  36,61,-1,-1,-1,-1,-1,-1,-1,
  36,-1,-1,-1,-1,-1,-1,-1,-1,
  36,-1,-1,-1,-1,-1,-1,-1,-1,
  36,-1,-1,-1,-1,-1,-1,-1,-1,
  36,-1,-1,-1,-1,-1,-1,-1,-1,
  36,-1,-1,-1,-1,-1,-1,-1,-1,
  36,-1,-1,-1,-1,-1,-1,-1,-1,
  36,-1,-1,-1,-1,-1,-1,-1,-1,
  36,-1,-1,-1,-1,-1,-1,-1,-1,
  36,61,-1,-1,-1,-1,-1,-1,-1,
  36,-1,-1,-1,-1,-1,-1,-1,-1,
  36,-1,-1,-1,-1,-1,-1,-1,-1,
  36,-1,-1,-1,-1,-1,-1,-1,-1,
  36,-1,-1,-1,-1,-1,-1,-1,-1,
  36,61,-1,-1,-1,-1,-1,-1,-1,
  36,-1,-1,-1,-1,-1,-1,-1,-1,
  36,-1,-1,-1,-1,-1,-1,-1,-1,
  36,-1,-1,-1,-1,-1,-1,-1,-1,
  36,61,-1,-1,-1,-1,-1,-1,-1,
  36,-1,-1,-1,-1,-1,-1,-1,-1,
  36,-1,-1,-1,-1,-1,-1,-1,-1,
  36,-1,-1,-1,-1,-1,-1,-1,-1,
  36,-1,-1,-1,-1,-1,-1,-1,-1,
  36,61,86,-1,-1,-1,-1,-1,-1,
  36,-1,-1,-1,-1,-1,-1,-1,-1,
  36,-1,-1,-1,-1,-1,-1,-1,-1,
  36,-1,-1,-1,-1,-1,-1,-1,-1,
  36,61,-1,-1,-1,-1,-1,-1,-1,
  36,-1,-1,-1,-1,-1,-1,-1,-1,
  36,-1,-1,-1,-1,-1,-1,-1,-1,
  36,-1,-1,-1,-1,-1,-1,-1,-1,
  36,-1,-1,-1,-1,-1,-1,-1,-1,
  36,61,-1,-1,-1,-1,-1,-1,-1,
  36,-1,-1,-1,-1,-1,-1,-1,-1,
  36,-1,-1,-1,-1,-1,-1,-1,-1,
  36,-1,-1,-1,-1,-1,-1,-1,-1,
  36,61,-1,-1,-1,-1,-1,-1,-1,
  36,-1,-1,-1,-1,-1,-1,-1,-1,
  36,-1,-1,-1,-1,-1,-1,-1,-1,
  36,-1,-1,-1,-1,-1,-1,-1,-1,
  36,-1,-1,-1,-1,-1,-1,-1,-1,
  36,61,-1,-1,-1,-1,-1,-1,-1,
  36,-1,-1,-1,-1,-1,-1,-1,-1,
  36,-1,-1,-1,-1,-1,-1,-1,-1,
  36,-1,-1,-1,-1,-1,-1,-1,-1,
  36,61,-1,-1,-1,-1,-1,-1,-1,
  36,-1,-1,-1,-1,-1,-1,-1,-1,
  36,61,-1,-1,-1,-1,-1,-1,-1,
  36,-1,-1,-1,-1,-1,-1,-1,-1,
  36,-1,-1,-1,-1,-1,-1,-1,-1,
  36,61,-1,-1,-1,-1,-1,-1,-1,
  36,-1,-1,-1,-1,-1,-1,-1,-1,
  36,-1,-1,-1,-1,-1,-1,-1,-1,
  36,-1,-1,-1,-1,-1,-1,-1,-1,
  36,61,-1,-1,-1,-1,-1,-1,-1,
  36,-1,-1,-1,-1,-1,-1,-1,-1,
  36,-1,-1,-1,-1,-1,-1,-1,-1,
  36,-1,-1,-1,-1,-1,-1,-1,-1,
  36,-1,-1,-1,-1,-1,-1,-1,-1,
  36,-1,-1,-1,-1,-1,-1,-1,-1,
  36,-1,-1,-1,-1,-1,-1,-1,-1,
  36,-1,-1,-1,-1,-1,-1,-1,-1,
  36,-1,-1,-1,-1,-1,-1,-1,-1,
  36,61,-1,-1,-1,-1,-1,-1,-1,
  36,-1,-1,-1,-1,-1,-1,-1,-1,
  36,-1,-1,-1,-1,-1,-1,-1,-1,
  36,-1,-1,-1,-1,-1,-1,-1,-1,
  36,-1,-1,-1,-1,-1,-1,-1,-1,
  36,61,86,-1,-1,-1,-1,-1,-1,
  36,-1,-1,-1,-1,-1,-1,-1,-1,
  36,-1,-1,-1,-1,-1,-1,-1,-1,
  36,-1,-1,-1,-1,-1,-1,-1,-1,
  36,61,-1,-1,-1,-1,-1,-1,-1,
  36,-1,-1,-1,-1,-1,-1,-1,-1,
  36,-1,-1,-1,-1,-1,-1,-1,-1,
  36,-1,-1,-1,-1,-1,-1,-1,-1,
  37,-1,-1,-1,-1,-1,-1,-1,-1,
  37,61,86,-1,-1,-1,-1,-1,-1,
  37,-1,-1,-1,-1,-1,-1,-1,-1,
  37,-1,-1,-1,-1,-1,-1,-1,-1,
  37,-1,-1,-1,-1,-1,-1,-1,-1,
  37,61,-1,-1,-1,-1,-1,-1,-1,
  37,-1,-1,-1,-1,-1,-1,-1,-1,
  37,-1,-1,-1,-1,-1,-1,-1,-1,
  37,-1,-1,-1,-1,-1,-1,-1,-1,
  36,-1,-1,-1,-1,-1,-1,-1,-1,
  36,61,86,-1,-1,-1,-1,-1,-1,
  36,-1,-1,-1,-1,-1,-1,-1,-1,
  36,-1,-1,-1,-1,-1,-1,-1,-1,
  36,-1,-1,-1,-1,-1,-1,-1,-1,
  36,61,-1,-1,-1,-1,-1,-1,-1,
  36,-1,-1,-1,-1,-1,-1,-1,-1,
  36,-1,-1,-1,-1,-1,-1,-1,-1,
  36,61,86,111,136,-1,-1,-1,-1,
  36,-1,-1,-1,-1,-1,-1,-1,-1,
  36,61,-1,-1,-1,-1,-1,-1,-1,
  36,-1,-1,-1,-1,-1,-1,-1,-1,
  36,-1,-1,-1,-1,-1,-1,-1,-1,
  36,-1,-1,-1,-1,-1,-1,-1,-1,
  36,61,-1,-1,-1,-1,-1,-1,-1,
  36,-1,-1,-1,-1,-1,-1,-1,-1,
  36,-1,-1,-1,-1,-1,-1,-1,-1,
  36,-1,-1,-1,-1,-1,-1,-1,-1 ]);
